# Solution for model r5_t18_m8_9 Batch Number: 2
# Finished Task: 14 / 18
# Makespan: 644.0, Total Distance: 303.0, Total Time: 0.9537
# R O S F Batch
0 0 15 0.0 0.0 -1
1 1 17 0.0 0.0 -1
2 2 10 0.0 0.0 -1
3 3 18 0.0 0.0 -1
4 4 21 0.0 0.0 -1
5 -1 -1 -1.0 -1.0 1
6 3 -1 432.0 456.0 0
7 -1 -1 -1.0 -1.0 1
8 1 22 468.0 489.0 0
9 1 -1 569.0 608.0 1
10 2 12 352.0 378.0 0
11 4 20 469.0 489.0 0
12 2 -1 456.0 489.0 0
13 0 19 532.0 564.0 1
14 -1 -1 -1.0 -1.0 1
15 0 13 315.0 345.0 0
16 -1 -1 -1.0 -1.0 1
17 1 8 378.0 411.0 0
18 3 6 340.0 374.0 0
19 0 -1 619.0 644.0 1
20 4 -1 508.0 532.0 1
21 4 11 406.0 444.0 0
22 1 9 510.0 537.0 1
